\ Model initialLPModel
\ LP format - for model browsing. Use MPS format to capture full model detail.
Maximize
  0.1 C0 + 0.1 C1 + 0.1 C2 + 0.1 C3 + 0.1 C4 + 0.1 C5 + 0.1 C6 + 0.1 C7
   + 0.1 C8 + 0.1 C9 - 0.1 C10 - 0.1 C11 - 0.1 C12 - 0.1 C13 - 0.1 C14
   - 0.1 C15 - 0.1 C16 - 0.1 C17 - 0.1 C18 - 0.1 C19
Subject To
 R0: C20 + C21 + C22 + C23 + C24 + C25 + C26 + C27 + C28 + C29 + C30 + C31
   + C32 + C33 + C34 + C35 + C36 + C37 + C38 + C39 + C40 + C41 + C42 + C43
   + C44 + C45 + C46 + C47 + C48 + C49 + C50 + C51 + C52 + C53 + C54 + C55
   + C56 + C57 + C58 + C59 = 2
 R1: 40 C0 - C20 - C21 - C24 - C25 - C28 - C29 - C32 - C33 - C36 - C37
   - C40 - C41 - C44 - C45 - C48 - C49 - C52 - C53 - C56 - C57 <= 38
 R2: - 40 C0 + C20 + C21 + C24 + C25 + C28 + C29 + C32 + C33 + C36 + C37
   + C40 + C41 + C44 + C45 + C48 + C49 + C52 + C53 + C56 + C57 <= 1
 R3: 40 C1 - C20 - C21 - C26 - C27 - C30 - C31 - C34 - C35 - C36 - C37
   - C42 - C43 - C46 - C47 - C49 - C50 - C52 - C53 - C58 - C59 <= 38
 R4: - 40 C1 + C20 + C21 + C26 + C27 + C30 + C31 + C34 + C35 + C36 + C37
   + C42 + C43 + C46 + C47 + C49 + C50 + C52 + C53 + C58 + C59 <= 1
 R5: 40 C2 - C20 - C21 - C26 - C27 - C30 - C31 - C34 - C35 - C36 - C37
   - C41 - C42 - C45 - C46 - C49 - C50 - C52 - C53 - C57 - C58 <= 38
 R6: - 40 C2 + C20 + C21 + C26 + C27 + C30 + C31 + C34 + C35 + C36 + C37
   + C41 + C42 + C45 + C46 + C49 + C50 + C52 + C53 + C57 + C58 <= 1
 R7: 40 C3 - C20 - C21 - C25 - C26 - C28 - C29 - C32 - C33 - C36 - C37
   - C41 - C42 - C45 - C46 - C49 - C50 - C52 - C53 - C57 - C58 <= 38
 R8: - 40 C3 + C20 + C21 + C25 + C26 + C28 + C29 + C32 + C33 + C36 + C37
   + C41 + C42 + C45 + C46 + C49 + C50 + C52 + C53 + C57 + C58 <= 1
 R9: 40 C4 - C20 - C21 - C26 - C27 - C30 - C31 - C34 - C35 - C36 - C37
   - C41 - C42 - C45 - C46 - C48 - C49 - C52 - C53 - C57 - C58 <= 38
 R10: - 40 C4 + C20 + C21 + C26 + C27 + C30 + C31 + C34 + C35 + C36 + C37
   + C41 + C42 + C45 + C46 + C48 + C49 + C52 + C53 + C57 + C58 <= 1
 R11: 40 C5 - C20 - C21 - C25 - C26 - C29 - C30 - C33 - C34 - C36 - C37
   - C42 - C43 - C46 - C47 - C48 - C49 - C52 - C53 - C58 - C59 <= 38
 R12: - 40 C5 + C20 + C21 + C25 + C26 + C29 + C30 + C33 + C34 + C36 + C37
   + C42 + C43 + C46 + C47 + C48 + C49 + C52 + C53 + C58 + C59 <= 1
 R13: 40 C6 - C20 - C21 - C26 - C27 - C30 - C31 - C34 - C35 - C36 - C37
   - C40 - C41 - C44 - C45 - C48 - C49 - C52 - C53 - C56 - C57 <= 38
 R14: - 40 C6 + C20 + C21 + C26 + C27 + C30 + C31 + C34 + C35 + C36 + C37
   + C40 + C41 + C44 + C45 + C48 + C49 + C52 + C53 + C56 + C57 <= 1
 R15: 40 C7 - C20 - C21 - C26 - C27 - C30 - C31 - C34 - C35 - C36 - C37
   - C40 - C41 - C44 - C45 - C48 - C49 - C52 - C53 - C56 - C57 <= 38
 R16: - 40 C7 + C20 + C21 + C26 + C27 + C30 + C31 + C34 + C35 + C36 + C37
   + C40 + C41 + C44 + C45 + C48 + C49 + C52 + C53 + C56 + C57 <= 1
 R17: 40 C8 - C20 - C21 - C26 - C27 - C30 - C31 - C34 - C35 - C36 - C37
   - C41 - C42 - C45 - C46 - C49 - C50 - C52 - C53 - C57 - C58 <= 38
 R18: - 40 C8 + C20 + C21 + C26 + C27 + C30 + C31 + C34 + C35 + C36 + C37
   + C41 + C42 + C45 + C46 + C49 + C50 + C52 + C53 + C57 + C58 <= 1
 R19: 40 C9 - C20 - C21 - C26 - C27 - C30 - C31 - C34 - C35 - C36 - C37
   - C41 - C42 - C45 - C46 - C49 - C50 - C52 - C53 - C57 - C58 <= 38
 R20: - 40 C9 + C20 + C21 + C26 + C27 + C30 + C31 + C34 + C35 + C36 + C37
   + C41 + C42 + C45 + C46 + C49 + C50 + C52 + C53 + C57 + C58 <= 1
 R21: 40 C10 - C20 - C21 - C25 - C26 - C29 - C30 - C33 - C34 - C36 - C37
   - C41 - C42 - C45 - C46 - C49 - C50 - C52 - C53 - C57 - C58 <= 38
 R22: - 40 C10 + C20 + C21 + C25 + C26 + C29 + C30 + C33 + C34 + C36 + C37
   + C41 + C42 + C45 + C46 + C49 + C50 + C52 + C53 + C57 + C58 <= 1
 R23: 40 C11 - C20 - C21 - C25 - C26 - C29 - C30 - C33 - C34 - C36 - C37
   - C42 - C43 - C46 - C47 - C48 - C49 - C52 - C53 - C58 - C59 <= 38
 R24: - 40 C11 + C20 + C21 + C25 + C26 + C29 + C30 + C33 + C34 + C36 + C37
   + C42 + C43 + C46 + C47 + C48 + C49 + C52 + C53 + C58 + C59 <= 1
 R25: 40 C12 - C20 - C21 - C25 - C26 - C29 - C30 - C33 - C34 - C37 - C38
   - C41 - C42 - C45 - C46 - C49 - C50 - C52 - C53 - C57 - C58 <= 38
 R26: - 40 C12 + C20 + C21 + C25 + C26 + C29 + C30 + C33 + C34 + C37 + C38
   + C41 + C42 + C45 + C46 + C49 + C50 + C52 + C53 + C57 + C58 <= 1
 R27: 40 C13 - C20 - C21 - C25 - C26 - C28 - C29 - C32 - C33 - C36 - C37
   - C42 - C43 - C45 - C46 - C49 - C50 - C52 - C53 - C58 - C59 <= 38
 R28: - 40 C13 + C20 + C21 + C25 + C26 + C28 + C29 + C32 + C33 + C36 + C37
   + C42 + C43 + C45 + C46 + C49 + C50 + C52 + C53 + C58 + C59 <= 1
 R29: 40 C14 - C20 - C21 - C26 - C27 - C30 - C31 - C34 - C35 - C36 - C37
   - C41 - C42 - C45 - C46 - C48 - C49 - C52 - C53 - C57 - C58 <= 38
 R30: - 40 C14 + C20 + C21 + C26 + C27 + C30 + C31 + C34 + C35 + C36 + C37
   + C41 + C42 + C45 + C46 + C48 + C49 + C52 + C53 + C57 + C58 <= 1
 R31: 40 C15 - C20 - C21 - C26 - C27 - C30 - C31 - C34 - C35 - C36 - C37
   - C41 - C42 - C45 - C46 - C49 - C50 - C52 - C53 - C57 - C58 <= 38
 R32: - 40 C15 + C20 + C21 + C26 + C27 + C30 + C31 + C34 + C35 + C36 + C37
   + C41 + C42 + C45 + C46 + C49 + C50 + C52 + C53 + C57 + C58 <= 1
 R33: 40 C16 - C20 - C21 - C24 - C25 - C28 - C29 - C33 - C34 - C36 - C37
   - C42 - C43 - C46 - C47 - C49 - C50 - C52 - C53 - C58 - C59 <= 38
 R34: - 40 C16 + C20 + C21 + C24 + C25 + C28 + C29 + C33 + C34 + C36 + C37
   + C42 + C43 + C46 + C47 + C49 + C50 + C52 + C53 + C58 + C59 <= 1
 R35: 40 C17 - C20 - C21 - C26 - C27 - C30 - C31 - C34 - C35 - C37 - C38
   - C40 - C41 - C45 - C46 - C48 - C49 - C53 - C54 - C57 - C58 <= 38
 R36: - 40 C17 + C20 + C21 + C26 + C27 + C30 + C31 + C34 + C35 + C37 + C38
   + C40 + C41 + C45 + C46 + C48 + C49 + C53 + C54 + C57 + C58 <= 1
 R37: 40 C18 - C20 - C21 - C25 - C26 - C29 - C30 - C33 - C34 - C36 - C37
   - C41 - C42 - C45 - C46 - C49 - C50 - C52 - C53 - C57 - C58 <= 38
 R38: - 40 C18 + C20 + C21 + C25 + C26 + C29 + C30 + C33 + C34 + C36 + C37
   + C41 + C42 + C45 + C46 + C49 + C50 + C52 + C53 + C57 + C58 <= 1
 R39: 40 C19 - C20 - C21 - C25 - C26 - C29 - C30 - C34 - C35 - C37 - C38
   - C40 - C41 - C45 - C46 - C48 - C49 - C53 - C54 - C57 - C58 <= 38
 R40: - 40 C19 + C20 + C21 + C25 + C26 + C29 + C30 + C34 + C35 + C37 + C38
   + C40 + C41 + C45 + C46 + C48 + C49 + C53 + C54 + C57 + C58 <= 1
 R41: C31 + C36 <= 0.05
 R42: C31 + C36 <= 0.05
 R43: C27 + C52 <= 0.05
 R44: C20 + C35 <= 0.05
 R45: C21 + C56 <= 0.05
 R46: C37 + C44 <= 0.05
 R47: C41 + C49 <= 0.05
 R48: C53 + C57 <= 0.05
 R49: C26 + C32 <= 0.05
 R50: C48 + C50 <= 0.05
 R51: C28 + C30 <= 0.05
 R52: C40 + C42 <= 0.05
 R53: C45 + C47 <= 0.05
 R54: C24 + C34 <= 0.05
 R55: C22 + C58 <= 0.05
 R56: C23 + C46 <= 0.05
 R57: C33 + C51 <= 0.05
 R58: C25 + C39 <= 0.05
 R59: C29 + C55 <= 0.05
 R60: C54 + C59 <= 0.05
 R61: C38 + C43 <= 0.05
Bounds
Binaries
 C0 C1 C2 C3 C4 C5 C6 C7 C8 C9 C10 C11 C12 C13 C14 C15 C16 C17 C18 C19 C20
 C21 C22 C23 C24 C25 C26 C27 C28 C29 C30 C31 C32 C33 C34 C35 C36 C37 C38
 C39 C40 C41 C42 C43 C44 C45 C46 C47 C48 C49 C50 C51 C52 C53 C54 C55 C56
 C57 C58 C59
End
